 vasp.5.4.1 24Jun15 (build Jul 03 2015 11:55:34) complex

 executed on           IFC91_ompi date 2023.02.20  18:31:02

 INCAR:
 POTCAR:   PAW_PBE Y_sv 06Sep2000
 POTCAR:   PAW_PBE N 08Apr2002
 POTCAR:   PAW_PBE O 08Apr2002

 POTCAR:   PAW_PBE Y_sv 06Sep2000
   VRHFIN =Y: 4s4p5s4d

   TITEL  = PAW_PBE Y_sv 06Sep2000
   POMASS =   88.906; ZVAL   =   11.000    mass and valenz
   ENMAX  =  211.641; ENMIN  =  158.731 eV
   QCUT   =   -3.944; QGAM   =    7.888    optimization parameters

   Description
     l     E      TYP  RCUT    TYP  RCUT
     0   .000     23  2.600
     0   .000     23  2.600
     1   .000     23  2.600
     1   .000     23  2.600
     2   .000     23  2.600
     2   .000     23  2.600
     3   .000      7   .000

 POTCAR:   PAW_PBE N 08Apr2002
   VRHFIN =N: s2p3

   TITEL  = PAW_PBE N 08Apr2002
   POMASS =   14.001; ZVAL   =    5.000    mass and valenz
   ENMAX  =  400.000; ENMIN  =  300.000 eV
   QCUT   =   -5.562; QGAM   =   11.124    optimization parameters

[...]

 POTCAR:   PAW_PBE O 08Apr2002
   VRHFIN =O: s2p4

   TITEL  = PAW_PBE O 08Apr2002
   POMASS =   16.000; ZVAL   =    6.000    mass and valenz
   ENMAX  =  400.000; ENMIN  =  300.000 eV
   QCUT   =   -5.520; QGAM   =   11.041    optimization parameters

   Description
     l     E      TYP  RCUT    TYP  RCUT
     0   .000     23  1.200
     0  -.700     23  1.200
     1   .000     23  1.520
     1   .600     23  1.520
     2   .000      7  1.500

 Optimization of the real space projectors (new method)

 maximal supplied QI-value         = 14.36
 optimisation between [QCUT,QGAM] = [ 10.34, 20.82] = [ 29.94,121.44] Ry
 Optimized for a Real-space Cutoff    1.72 Angstroem

   l    n(q)    QCUT    max X(q) W(low)/X(q) W(high)/X(q)  e(spline)
   0     11    10.341     8.406    0.16E-04    0.10E-05    0.59E-08
   0     11    10.341    10.301    0.39E-04    0.10E-04    0.56E-07
   1     10    10.341     4.485    0.28E-05    0.25E-05    0.25E-07
   1     10    10.341    11.894    0.13E-04    0.46E-04    0.22E-06
   2     10    10.341     4.489    0.11E-04    0.17E-04    0.54E-07
   2     10    10.341    42.100    0.17E-03    0.13E-03    0.40E-06
 Optimization of the real space projectors (new method)

[...]

   l    n(q)    QCUT    max X(q) W(low)/X(q) W(high)/X(q)  e(spline)
   0      9    10.305     4.511    0.36E-04    0.16E-04    0.94E-07
   0      9    10.305    37.799    0.22E-03    0.22E-03    0.34E-06
   1      8    10.305     2.478    0.24E-04    0.31E-04    0.10E-06
   1      8    10.305     6.023    0.26E-03    0.86E-03    0.25E-05
 Optimization of the real space projectors (new method)

 maximal supplied QI-value         = 24.76
 optimisation between [QCUT,QGAM] = [ 10.40, 20.79] = [ 30.27,121.09] Ry
 Optimized for a Real-space Cutoff    1.28 Angstroem

   l    n(q)    QCUT    max X(q) W(low)/X(q) W(high)/X(q)  e(spline)
   0      8    10.397     4.192    0.56E-04    0.75E-04    0.71E-07
   0      8    10.397     8.473    0.39E-03    0.67E-03    0.19E-06
   1      7    10.397     2.474    0.11E-03    0.88E-04    0.32E-07
   1      7    10.397     3.912    0.41E-03    0.44E-03    0.12E-06
 PAW_PBE Y_sv 06Sep2000                 :
 PAW_PBE N 08Apr2002                    :
 PAW_PBE O 08Apr2002                    :

 POSCAR: Y2N
  positions in direct lattice
  velocities in cartesian coordinates
 exchange correlation table for  LEXCH =        8
   RHO(1)=    0.500       N(1)  =     2000
   RHO(2)=  100.500       N(2)  =     4000

 ion  position               nearest neighbor table
   1  0.000  0.000  0.068-   4 2.25   4 2.25   4 2.25   3 2.42   3 2.42   3 2.42   2 3.35   2 3.35
                             2 3.35
   2  0.667  0.333  0.251-   5 2.25   5 2.25   5 2.25   3 2.42   3 2.42   3 2.42   1 3.35   1 3.35
                             1 3.35
   3  0.333  0.667  0.159-   2 2.42   2 2.42   1 2.42   1 2.42   2 2.42   1 2.42
   4  0.667  0.333  0.000-   1 2.25   1 2.25   1 2.25
   5  0.000  0.000  0.319-   2 2.25   2 2.25   2 2.25

  LATTYP: Found a hexagonal cell.
 ALAT       =     3.4814593510
 C/A-ratio  =     4.2168282668

  Lattice vectors:

 A1 = (   3.4814593510,   0.0000000000,   0.0000000000)
 A2 = (  -1.7407296755,   3.0150322402,   0.0000000000)
 A3 = (   0.0000000000,   0.0000000000,  14.6807162010)

Analysis of symmetry for initial positions (statically):
 Subroutine PRICEL returns:
 Original cell was already a primitive cell.

 Routine SETGRP: Setting up the symmetry group for a
 hexagonal supercell.

 Subroutine GETGRP returns: Found 12 space group operations
 (whereof  6 operations were pure point group operations)
 out of a pool of 24 trial point group operations.

The static configuration has the point symmetry C_3v.
 The point group associated with its full space group is D_3d.

Analysis of symmetry for dynamics (positions and initial velocities):
 Subroutine PRICEL returns:
 Original cell was already a primitive cell.

[...]

The dynamic configuration has the point symmetry C_3v.
 The point group associated with its full space group is D_3d.

Analysis of constrained symmetry for selective dynamics:
 Subroutine PRICEL returns:
 Original cell was already a primitive cell.

 Routine SETGRP: Setting up the symmetry group for a
 hexagonal supercell.

 Subroutine GETGRP returns: Found 12 space group operations
 (whereof  6 operations were pure point group operations)
 out of a pool of 24 trial point group operations.

The constrained configuration has the point symmetry C_3v.
 The point group associated with its full space group is D_3d.

Analysis of magnetic symmetry:
 Subroutine PRICEL returns:
 Original cell was already a primitive cell.

 Subroutine MAGSYM returns: Found 12 space group operations
 (whereof  6 operations were pure point group operations)
 out of a pool of 12 trial space group operations
 (whereof  6 operations were pure point group operations)
 and found also     1 'primitive' translations

The magnetic configuration has the point symmetry C_3v.
 The point group associated with its full space group is D_3d.

 KPOINTS: K-Points

Automatic generation of k-mesh.
Space group operators:
 irot       det(A)        alpha          n_x          n_y          n_z        tau_x        tau_y        tau_z
    1     1.000000     0.000000     1.000000     0.000000     0.000000     0.000000     0.000000     0.000000
    2     1.000000   120.000000     0.000000     0.000000    -1.000000     0.000000     0.000000     0.000000
    3     1.000000   120.000000     0.000000     0.000000     1.000000     0.000000     0.000000     0.000000
    4    -1.000000   179.999999     1.000000     0.000000     0.000000     0.000000     0.000000     0.000000
    5    -1.000000   180.000000    -0.500000     0.866025     0.000000     0.000000     0.000000     0.000000
    6    -1.000000   180.000000     0.500000     0.866025     0.000000     0.000000     0.000000     0.000000
    7    -1.000000     0.000000     1.000000     0.000000     0.000000     0.666667     0.333333     0.318834
    8    -1.000000   120.000000     0.000000     0.000000    -1.000000     0.666667     0.333333     0.318834
    9    -1.000000   120.000000     0.000000     0.000000     1.000000     0.666667     0.333333     0.318834
   10     1.000000   179.999999     1.000000     0.000000     0.000000     0.666667     0.333333     0.318834
   11     1.000000   180.000000    -0.500000     0.866025     0.000000     0.666667     0.333333     0.318834
   12     1.000000   180.000000     0.500000     0.866025     0.000000     0.666667     0.333333     0.318834

 Subroutine IBZKPT returns following result:

 Found      8 irreducible k-points:

 Following reciprocal coordinates:
            Coordinates               Weight
  0.000000  0.000000  0.000000      1.000000
  0.142857  0.000000  0.000000      6.000000
  0.285714  0.000000  0.000000      6.000000
  0.428571  0.000000  0.000000      6.000000
  0.142857  0.142857  0.000000      6.000000
  0.285714  0.142857  0.000000     12.000000
  0.428571  0.142857  0.000000      6.000000
  0.285714  0.285714  0.000000      6.000000

 Following cartesian coordinates:
            Coordinates               Weight
  0.000000  0.000000  0.000000      1.000000
  0.041034  0.023691  0.000000      6.000000
  0.082067  0.047382  0.000000      6.000000
  0.123101  0.071072  0.000000      6.000000
  0.041034  0.071072  0.000000      6.000000
  0.082067  0.094763  0.000000     12.000000
  0.123101  0.118454  0.000000      6.000000
  0.082067  0.142145  0.000000      6.000000

 I would recommend the setting:
   dimension x,y,z NGX =    17 NGY =   17 NGZ =   73
 SYSTEM =  Y2N1O2
 POSCAR =  Y2N

 Startparameter for this run:
   NWRITE =      2    write-flag & timer
   PREC   = normal    normal or accurate (medium, high low for compatibility)
   ISTART =      0    job   : 0-new  1-cont  2-samecut
   ICHARG =      2    charge: 1-file 2-atom 10-const
   ISPIN  =      2    spin polarized calculation?
   LNONCOLLINEAR =      F non collinear calculations
   LSORBIT =      F    spin-orbit coupling
   INIWAV =      1    electr: 0-lowe 1-rand  2-diag
   LASPH  =      F    aspherical Exc in radial PAW
   METAGGA=      F    non-selfconsistent MetaGGA calc.

 Electronic Relaxation 1
   ENCUT  =  415.0 eV  30.50 Ry    5.52 a.u.   5.78  5.78 24.39*2*pi/ulx,y,z
   ENINI  =  415.0     initial cutoff
   ENAUG  =  627.1 eV  augmentation charge cutoff
   NELM   =    101;   NELMIN=  2; NELMDL= -5     # of ELM steps
   EDIFF  = 0.1E-05   stopping-criterion for ELM
   LREAL  =      T    real-space projection
   NLSPLINE    = F    spline interpolate recip. space projectors
   LCOMPAT=      F    compatible to vasp.4.4
   GGA_COMPAT  = T    GGA compatible to vasp.4.4-vasp.4.6
   LMAXPAW     = -100 max onsite density
   LMAXMIX     =    2 max onsite mixed and CHGCAR
   VOSKOWN=      0    Vosko Wilk Nusair interpolation
   ROPT   =   -0.00050  -0.00050  -0.00050
 Ionic relaxation
   EDIFFG = -.1E-01   stopping-criterion for IOM
   NSW    =    101    number of steps for IOM
   NBLOCK =      1;   KBLOCK =    101    inner block; outer block
   IBRION =      2    ionic relax: 0-MD 1-quasi-New 2-CG
   NFREE  =      1    steps in history (QN), initial steepest desc. (CG)
   ISIF   =      4    stress and relaxation
   IWAVPR =     11    prediction:  0-non 1-charg 2-wave 3-comb
   ISYM   =      2    0-nonsym 1-usesym 2-fastsym
   LCORR  =      T    Harris-Foulkes like correction to forces

   POTIM  = 0.5000    time-step for ionic-motion
   TEIN   =    0.0    initial temperature
   TEBEG  =    0.0;   TEEND  =   0.0 temperature during run
   SMASS  =  -3.00    Nose mass-parameter (am)
   estimated Nose-frequenzy (Omega)   =  0.10E-29 period in steps =****** mass=  -0.277E-27a.u.
   SCALEE = 1.0000    scale energy and forces
   NPACO  =    256;   APACO  = 16.0  distance and # of slots for P.C.
   PSTRESS=    0.0 pullay stress

  Mass of Ions in am
   POMASS =  88.91 14.00 16.00
  Ionic Valenz
   ZVAL   =  11.00  5.00  6.00
  Atomic Wigner-Seitz radii
  virtual crystal weights
   VCA    =   1.00  1.00  1.00
   NELECT =      39.0000    total number of electrons
   NUPDOWN=      -1.0000    fix difference up-down

 DOS related values:
[...]

 First call to EWALD:  gamma=   0.331
 Maximum number of real-space cells 5x 5x 1
 Maximum number of reciprocal cells 2x 2x 7

 FEWALD executed in parallel

----------------------------------------- Iteration    1(   1)  ---------------------------------------

 eigenvalue-minimisations  :  1048
 total energy-change (2. order) : 0.2514483E+03  (-0.1677899E+04)
 number of electron      39.0000000 magnetization       5.0000000
 augmentation part       39.0000000 magnetization       5.0000000

 Free energy of the ion-electron system (eV)
  alpha Z        PSCENC =       119.54541683
  Ewald energy   TEWEN  =      3188.33900738
  -Hartree energ DENC   =     -6071.11864070
  -exchange      EXHF   =         0.00000000
  -V(xc)+E(xc)   XCENC  =       160.93287444
  PAW double counting   =      1963.16040053    -1925.36309326
  entropy T*S    EENTRO =        -0.00184622
  eigenvalues    EBANDS =      -405.58227640
  atomic energy  EATOM  =      3221.53645933
  Solvation  Ediel_sol  =         0.00000000
  free energy    TOTEN  =       251.44830195 eV

  energy without entropy =      251.45014816  energy(sigma->0) =      251.44922505

[...]

 eigenvalue-minimisations  :  1336
 total energy-change (2. order) :-0.2744356E+03  (-0.2659643E+03)
 number of electron      39.0000000 magnetization       5.0000000
 augmentation part       39.0000000 magnetization       5.0000000

[...]

 Broyden mixing:
  rms(total) = 0.16281E+01    rms(broyden)= 0.16275E+01
  rms(prec ) = 0.18943E+01
  weight for this iteration     100.00

[...]

 eigenvalues of (default mixing * dielectric matrix)
  average eigenvalue GAMMA=   0.8501
  0.8501

[...]

 average (electrostatic) potential at core
  the test charge radii are     1.1987  0.7089  0.7215
  (the norm of the test charge is              1.0000)
       1 -42.1598       2 -42.1598       3 -69.7989       4 -76.2703       5 -76.2703

 E-fermi :  -3.0686     XC(G=0):  -5.5922     alpha+bet : -5.4898

 spin component 1

 k-point     1 :       0.0000    0.0000    0.0000
  band No.  band energies     occupation
      1     -42.8614      1.00000
      2     -42.7698      1.00000
      3     -23.7335      1.00000
      4     -23.0780      1.00000
      5     -22.6959      1.00000
      6     -22.6959      1.00000
      7     -22.6299      1.00000
      8     -22.6299      1.00000
      9     -18.7768      1.00000
     10     -18.5243      1.00000
     11     -14.9913      1.00000
     12      -6.2632      1.00000
     13      -5.6443      1.00000
     14      -5.6441      1.00000
     15      -4.7751      1.00000
     16      -4.7748      1.00000
     17      -4.7161      1.00000
     18      -3.5923      1.00000
     19      -3.2102      1.00000
     20      -3.2099      1.00000
     21       1.6737      0.00000
     22       1.6737      0.00000
     23       1.7097      0.00000
     24       2.9673      0.00000
     25       3.5542      0.00000
     26       3.8538      0.00000
     27       3.8539      0.00000
     28       3.9003      0.00000
     29       4.4367      0.00000
     30       5.2068      0.00000
     31       5.2070      0.00000
     32       6.0851      0.00000

[...]

 soft charge-density along one line, spin component           1
         0         1         2         3         4         5         6         7         8         9
 total charge-density along one line

[...]

------------------------ aborting loop because EDIFF is reached ----------------------------------------

  FORCE on cell =-STRESS in cart. coord.  units (eV):
  Direction    XX          YY          ZZ          XY          YZ          ZX
  Alpha Z   119.54542   119.54542   119.54542
  Ewald    5062.20821  5062.20821 -6936.07806     0.00000     0.00000     0.00000
  Hartree  5764.81960  5764.81960 -5387.51824     0.00000     0.00000     0.00000
  E(xc)    -170.16943  -170.16941  -171.08185     0.00002     0.00000     0.00000
  Local  -11280.47317-11280.47460 11873.89226    -0.00123     0.00000     0.00000
  n-local  -169.04996  -171.74607  -164.20047     7.09332     1.70297     4.72127
  augment    39.91044    39.91046    38.53330     0.00002     0.00000     0.00000
  Kinetic   633.33890   639.84588   628.50113   -18.93608    -5.89587   -15.95808
  Fock        0.00000     0.00000     0.00000     0.00000     0.00000     0.00000
  Total       2.03475     2.03475     1.59348     0.00000     0.00000     0.00000
  in kB      21.15540    21.15540    16.56752     0.00000     0.00000     0.00000

 VOLUME and BASIS-vectors are now :
  energy-cutoff  :      415.00
  volume of cell :      154.10
      direct lattice vectors                 reciprocal lattice vectors
     3.481459351  0.000000000  0.000000000     0.287235868  0.165835706  0.000000000
    -1.740729675  3.015032240  0.000000000     0.000000000  0.331671412  0.000000000
     0.000000000  0.000000000 14.680716201     0.000000000  0.000000000  0.068116568

[...]

 FORCES acting on ions
    electron-ion (+dipol)            ewald-force                    non-local-force                 convergence-correction
   -.328E-06 0.196E-06 0.910E+03   -.373E-11 -.298E-08 -.914E+03   -.378E-16 0.337E-15 0.137E+01   -.167E-09 0.962E-10 0.441E-05
   0.324E-06 -.194E-06 -.910E+03   0.132E-10 0.298E-08 0.914E+03   0.239E-16 -.337E-15 -.137E+01   0.167E-09 -.961E-10 -.444E-05
   -.251E-08 0.164E-08 0.458E-05   -.103E-10 0.594E-11 0.104E-10   -.128E-21 -.172E-21 -.136E-19   0.559E-12 -.308E-12 -.725E-08
   -.382E-06 0.218E-06 0.893E+03   0.669E-11 0.470E-08 -.906E+03   -.395E-15 0.405E-14 0.145E+02   0.224E-09 -.129E-09 -.305E-04
   0.385E-06 -.221E-06 -.893E+03   -.585E-11 -.470E-08 0.906E+03   0.396E-15 -.405E-14 -.145E+02   -.224E-09 0.129E-09 0.304E-04
   -.280E-08 0.213E-09 0.249E-05   -.115E-13 0.132E-13 -.114E-12   -.134E-16 0.951E-20 0.355E-14   0.104E-11 -.425E-12 -.419E-07

 POSITION                                       TOTAL-FORCE (eV/Angst)
      0.00000      0.00000      1.00000         0.000000      0.000000     -3.045083
      1.74073      1.00501      3.68072         0.000000      0.000000      3.045083
      0.00000      2.01002      2.34036         0.000000      0.000000      0.000000
      1.74073      1.00501      0.00000         0.000000      0.000000      1.143746
      0.00000      0.00000      4.68072         0.000000      0.000000     -1.143746
    total drift:                                0.000000      0.000000      0.000002

  FREE ENERGIE OF THE ION-ELECTRON SYSTEM (eV)
  free  energy   TOTEN  =       -42.01018510 eV

  energy  without entropy=      -42.00825320  energy(sigma->0) =      -42.00921915

[...]

 d Force = 0.5331679E+00[ 0.484E-01, 0.102E+01]  d Energy = 0.5348098E+00-0.164E-02
 d Force = 0.1713210E+03[ 0.174E+03, 0.168E+03]  d Ewald  = 0.2048377E+03-0.335E+02

 Steepest descent step on ions:
 trial-energy change:   -0.534810  1 .order   -0.539308   -1.022133   -0.056484
  (g-gl).g = 0.102E+01      g.g   = 0.102E+01  gl.gl    = 0.000E+00
 g(Force)  = 0.102E+01   g(Stress)= 0.125E-02 ortho     = 0.000E+00
 gamma     =   0.00000
 trial     =   1.00000
 opt step  =   1.06028  (harmonic =   1.05849) maximal distance =0.15575809
 next E    =   -42.546696   (d E  =  -0.53651)

[...]

 d Force = 0.1300650E-02[-0.321E-03, 0.292E-02]  d Energy = 0.1759431E-02-0.459E-03
 d Force = 0.1055946E+02[ 0.106E+02, 0.105E+02]  d Ewald  = 0.1255625E+02-0.200E+01

[...]

 Conjugate gradient step on ions:
 trial-energy change:   -0.053048  1 .order   -0.052515   -0.069849   -0.035181
  (g-gl).g = 0.657E-01      g.g   = 0.688E-01  gl.gl    = 0.102E+01
 g(Force)  = 0.124E-01   g(Stress)= 0.565E-01 ortho     = 0.308E-02
 gamma     =   0.06431
 trial     =   1.01206
 opt step  =   1.88837  (harmonic =   2.03907) maximal distance =0.02784087
 next E    =   -42.615379   (d E  =  -0.06862)

[...]

 Conjugate gradient step on ions:
 trial-energy change:   -0.007970  1 .order   -0.007725   -0.013805   -0.001644
  (g-gl).g = 0.711E-02      g.g   = 0.840E-02  gl.gl    = 0.159E-01
 g(Force)  = 0.837E-02   g(Stress)= 0.314E-04 ortho     = 0.145E-02
 gamma     =   0.44770
 trial     =   1.52476
 opt step  =   1.70626  (harmonic =   1.73088) maximal distance =0.03143320
 next E    =   -42.648147   (d E  =  -0.00807)

[...]

 d Force = 0.1151647E-03[ 0.371E-04, 0.193E-03]  d Energy = 0.9007134E-04 0.251E-04
 d Force = 0.5434182E+01[ 0.543E+01, 0.543E+01]  d Ewald  = 0.5266084E+01 0.168E+00

[...]

 d Force = 0.1933407E-03[ 0.865E-04, 0.300E-03]  d Energy = 0.2708886E-03-0.775E-04
 d Force = 0.1087039E+02[ 0.109E+02, 0.109E+02]  d Ewald  =-0.2549889E+01 0.134E+02

 Conjugate gradient step on ions:
 trial-energy change:   -0.000271  1 .order   -0.000280   -0.000474   -0.000087
  (g-gl).g = 0.953E-03      g.g   = 0.302E-03  gl.gl    = 0.840E-02
 g(Force)  = 0.192E-03   g(Stress)= 0.110E-03 ortho     =-0.623E-06
 gamma     =   0.11344
 trial     =   1.57022
 opt step  =   2.00392  (harmonic =   1.92184) maximal distance =0.00445570
 next E    =   -42.648429   (d E  =  -0.00028)

[...]

 d Force =-0.2392412E-05[-0.244E-05,-0.234E-05]  d Energy = 0.8846350E-06-0.328E-05
 d Force =-0.5836204E+00[-0.584E+00,-0.584E+00]  d Ewald  = 0.1372686E+00-0.721E+00

[...]

 d Force =-0.6321180E-05[-0.759E-05,-0.505E-05]  d Energy =-0.2477421E-05-0.384E-05
 d Force =-0.1207411E+01[-0.121E+01,-0.121E+01]  d Ewald  = 0.2841065E+00-0.149E+01

[...]

 d Force = 0.7711849E-06[ 0.736E-06, 0.807E-06]  d Energy = 0.6452728E-07 0.707E-06
 d Force = 0.1763113E+00[ 0.176E+00, 0.176E+00]  d Ewald  =-0.4146144E-01 0.218E+00

 FEWALD executed in parallel

[...]

 eigenvalue-minimisations  :  1248
 total energy-change (2. order) : 0.2916742E-05  (-0.3712247E-06)
 number of electron      39.0000052 magnetization       0.9183579
 augmentation part        5.6345201 magnetization       0.1456714

[...]

 Broyden mixing:
  rms(total) = 0.48294E-04    rms(broyden)= 0.48067E-04
  rms(prec ) = 0.55400E-04
  weight for this iteration     100.00

 eigenvalues of (default mixing * dielectric matrix)
  average eigenvalue GAMMA=   1.3868
  2.4355  2.0017  1.0068  0.8182  0.6718

[...]

----------------------------------------- Iteration   19(   7)  ---------------------------------------

 eigenvalue-minimisations  :  1080
 total energy-change (2. order) :-0.5286770E-06  (-0.3745220E-08)
 number of electron      39.0000052 magnetization       0.9183585
 augmentation part        5.6345239 magnetization       0.1456716

 Free energy of the ion-electron system (eV)
  alpha Z        PSCENC =       119.54541683
  Ewald energy   TEWEN  =      2216.16580034
  -Hartree energ DENC   =     -5194.52268045
  -exchange      EXHF   =         0.00000000
  -V(xc)+E(xc)   XCENC  =       162.41757325
  PAW double counting   =      2114.33184394    -2079.50397687
  entropy T*S    EENTRO =        -0.00227821
  eigenvalues    EBANDS =      -602.61661757
  atomic energy  EATOM  =      3221.53645933
  Solvation  Ediel_sol  =         0.00000000
  free energy    TOTEN  =       -42.64845941 eV

  energy without entropy =      -42.64618120  energy(sigma->0) =      -42.64732030

 average (electrostatic) potential at core
  the test charge radii are     1.1987  0.7089  0.7215
  (the norm of the test charge is              1.0000)
       1 -41.6453       2 -41.6453       3 -69.0505       4 -75.6061       5 -75.6061

 E-fermi :  -2.2397     XC(G=0):  -5.7664     alpha+bet : -5.4898

[...]

 spin component 2

[...]

 k-point     8 :       0.2857    0.2857    0.0000
  band No.  band energies     occupation
      1     -42.1848      1.00000
      2     -42.1796      1.00000
      3     -23.1914      1.00000
      4     -23.1765      1.00000
      5     -22.6057      1.00000
      6     -22.4844      1.00000
      7     -22.4297      1.00000
      8     -22.3541      1.00000
      9     -17.1671      1.00000
     10     -17.1618      1.00000
     11     -13.1625      1.00000
     12      -4.5588      1.00000
     13      -4.2051      1.00000
     14      -4.0386      1.00000
     15      -3.9417      1.00000
     16      -3.8696      1.00000
     17      -3.5650      1.00000
     18      -2.7192      1.00000
     19      -2.5742      1.00000
     20      -2.4679      1.00000
     21       2.5321      0.00000
     22       3.3478      0.00000
     23       3.5184      0.00000
     24       3.5848      0.00000
     25       4.7920      0.00000
     26       4.9749      0.00000
     27       5.4967      0.00000
     28       6.5089      0.00000
     29       6.7537      0.00000
     30       7.2609      0.00000
     31       7.5496      0.00000
     32       7.8233      0.00000

[...]

 soft charge-density along one line, spin component           2
         0         1         2         3         4         5         6         7         8         9
 total charge-density along one line

------------------------ aborting loop because EDIFF is reached ----------------------------------------

  FORCE on cell =-STRESS in cart. coord.  units (eV):
  Direction    XX          YY          ZZ          XY          YZ          ZX
  Alpha Z   119.54542   119.54542   119.54542
  Ewald    4086.52187  4086.52187 -5956.87861     0.00000     0.00000     0.00000
  Hartree  4814.21965  4814.21965 -4433.92425     0.00000     0.00000     0.00000
  E(xc)    -169.73915  -169.73912  -170.99936     0.00003     0.00000     0.00000
  Local   -9355.12378 -9355.12539  9939.55771    -0.00139     0.00000     0.00000
  n-local  -168.46851  -170.66367  -160.83779     6.22926     1.04367     3.94386
  augment    40.52389    40.52391    39.18152     0.00002     0.00000     0.00000
  Kinetic   630.60930   635.03465   623.53356   -14.46803    -2.93949   -10.98536
  Fock        0.00000     0.00000     0.00000     0.00000     0.00000     0.00000
  Total      -0.79700    -0.79700    -0.82181     0.00000     0.00000     0.00000
  in kB      -8.28648    -8.28648    -8.54444     0.00000     0.00000     0.00000

 VOLUME and BASIS-vectors are now :
  energy-cutoff  :      415.00
  volume of cell :      154.10
      direct lattice vectors                 reciprocal lattice vectors
     3.557329581  0.000000000  0.000000000     0.281109742  0.162298785  0.000000000
    -1.778664790  3.080737787  0.000000000     0.000000000  0.324597570  0.000000000
     0.000000000  0.000000000 14.061177591     0.000000000  0.000000000  0.071117799

  length of vectors
     3.557329581  3.557329581 14.061177591     0.324597570  0.324597570  0.071117799

 FORCES acting on ions
    electron-ion (+dipol)            ewald-force                    non-local-force                 convergence-correction
   -.130E-06 0.759E-07 0.849E+03   -.609E-11 -.544E-08 -.849E+03   0.116E-16 0.127E-16 0.410E+00   0.475E-09 -.274E-09 0.793E-03
   0.131E-06 -.767E-07 -.849E+03   0.133E-10 0.544E-08 0.849E+03   -.116E-16 -.406E-16 -.410E+00   -.476E-09 0.275E-09 -.793E-03
   0.146E-08 -.737E-09 0.593E-06   -.813E-11 0.464E-11 0.164E-10   0.374E-22 0.869E-22 0.000E+00   0.235E-12 -.127E-12 0.243E-08
   -.242E-05 0.142E-05 0.773E+03   0.858E-11 0.710E-08 -.784E+03   -.667E-15 0.383E-14 0.103E+02   -.340E-09 0.196E-09 0.385E-03
   0.242E-05 -.141E-05 -.773E+03   -.760E-11 -.710E-08 0.784E+03   0.660E-15 -.383E-14 -.103E+02   0.340E-09 -.196E-09 -.385E-03
   0.506E-08 0.980E-09 -.178E-04   0.992E-14 0.121E-13 -.114E-12   -.697E-17 -.276E-16 0.178E-14   -.593E-12 0.396E-12 0.146E-07

 POSITION                                       TOTAL-FORCE (eV/Angst)
      0.00000      0.00000      0.72335         0.000000      0.000000      0.000944
      1.77866      1.02691      3.75984         0.000000      0.000000     -0.000944
      0.00000      2.05383      2.24159         0.000000      0.000000      0.000000
      1.77866      1.02691     -0.04383         0.000000      0.000000     -0.004770
      0.00000      0.00000      4.52701         0.000000      0.000000      0.004770
    total drift:                                0.000000      0.000000     -0.000018

  FREE ENERGIE OF THE ION-ELECTRON SYSTEM (eV)
  free  energy   TOTEN  =       -42.64845941 eV

  energy  without entropy=      -42.64618120  energy(sigma->0) =      -42.64732030

 d Force = 0.1427205E-04[-0.774E-05, 0.363E-04]  d Energy = 0.2543800E-04-0.112E-04
 d Force = 0.7862246E+00[ 0.787E+00, 0.786E+00]  d Ewald  = 0.4321210E+01-0.353E+01

 Conjugate gradient step on ions:
 trial-energy change:   -0.000025  1 .order   -0.000024   -0.000048   -0.000001
  (g-gl).g =-0.157E-05      g.g   = 0.293E-04  gl.gl    = 0.302E-03
 g(Force)  = 0.224E-04   g(Stress)= 0.691E-05 ortho     = 0.988E-06
 gamma     =  -0.00518
 trial     =   1.63498
 opt step  =   1.66923  (harmonic =   1.66923) maximal distance =0.00104697
 next E    =   -42.648458   (d E  =  -0.00002)

 reached required accuracy - stopping structural energy minimisation
 writing wavefunctions